NAME:  test1
TYPE: AGTSP
COMMENT: gtsp tours
DIMENSION:  73
GTSP_SETS: 13
EDGE_WEIGHT_TYPE: EXPLICIT
EDGE_WEIGHT_FORMAT: FULL_MATRIX 
EDGE_WEIGHT_SECTION
999999	0	999999	999999	999999	999999	22749	22749	22749	22741	999999	999999	22765	22765	22765	22765	22757	999999	22777	22777	22777	22777	22777	22769	22762	22762	22762	22762	22754	999999	22752	22752	22752	22744	999999	999999	22762	22762
999999	999999	0	999999	999999	999999	22749	22749	22749	22749	22741	999999	22765	22765	22765	22765	22765	22757	22777	22777	22777	999999	999999	999999	22762	22762	22762	22762	22762	22754	22752	22752	22752	22752	22744	999999	22762	22762
999999	999999	999999	0	999999	999999	22749	22749	22749	22749	22749	22741	22765	22765	22765	22765	999999	999999	22777	22777	22777	22777	999999	999999	22762	22762	22762	22762	999999	999999	22752	22752	22752	22752	22752	22744	22762	22762
999999	999999	999999	999999	0	999999	22749	22749	22749	22749	22749	999999	22765	22765	22765	22765	22765	999999	22777	22777	22777	22777	22777	999999	22762	22762	22762	22762	22762	999999	22752	22752	22752	22752	22752	999999	22762	22762
999999	999999	999999	999999	999999	0	22749	22749	22749	22749	22749	22749	22765	22765	22765	22765	22765	22765	22777	22777	22777	22777	22777	22777	22762	22762	22762	22762	22762	22762	22752	22752	22752	22752	22752	22752	22762	22762
0	999999	999999	999999	999999	999999	22749	22749	22741	999999	999999	999999	22765	22765	22765	22757	999999	999999	22777	22777	22777	22777	22769	999999	22762	22762	22762	22754	999999	999999	22752	22752	22744	999999	999999	999999	22762	22762
22749	22749	22749	22741	999999	999999	999999	0	999999	999999	999999	999999	22751	22751	22751	22743	999999	999999	22761	22761	22761	22761	22753	999999	22749	22749	22749	22741	999999	999999	22744	22744	22736	999999	999999	999999	22746	22746
22749	22749	22749	22749	22741	999999	999999	999999	0	999999	999999	999999	22751	22751	22751	22751	22743	999999	22761	22761	22761	22761	22761	22753	22749	22749	22749	22749	22741	999999	22744	22744	22744	22736	999999	999999	22746	22746
22749	22749	22749	22749	22749	22741	999999	999999	999999	0	999999	999999	22751	22751	22751	22751	22751	22743	22761	22761	22761	22761	999999	999999	22749	22749	22749	22749	22749	22741	22744	22744	22744	22744	22736	999999	22746	22746
22749	22749	22749	22749	22749	999999	999999	999999	999999	999999	0	999999	22751	22751	22751	22751	22751	999999	22761	22761	22761	22761	22761	999999	22749	22749	22749	22749	22749	999999	22744	22744	22744	22744	22744	22736	22746	22746
22749	22749	22749	22749	22749	22749	999999	999999	999999	999999	999999	0	22751	22751	22751	22751	22751	22751	22761	22761	22761	22761	22761	22761	22749	22749	22749	22749	22749	22749	22744	22744	22744	22744	22744	22744	22746	22746
22749	22749	22741	999999	999999	999999	0	999999	999999	999999	999999	999999	22751	22751	22743	999999	999999	999999	22761	22761	22761	22753	999999	999999	22749	22749	22741	999999	999999	999999	22744	22736	999999	999999	999999	999999	22746	22738
22765	22765	22765	22765	22757	999999	22751	22751	22751	22743	999999	999999	999999	0	999999	999999	999999	999999	22749	22749	22749	22741	999999	999999	22759	22759	22759	22751	999999	999999	22745	22745	22737	999999	999999	999999	22749	22749
22765	22765	22765	22765	22765	22757	22751	22751	22751	22751	22743	999999	999999	999999	0	999999	999999	999999	22749	22749	22749	22749	22741	999999	22759	22759	22759	22759	22751	999999	22745	22745	22745	22737	999999	999999	22749	22749
22765	22765	22765	22765	999999	999999	22751	22751	22751	22751	22751	22743	999999	999999	999999	0	999999	999999	22749	22749	22749	22749	22749	22741	22759	22759	22759	22759	22759	22751	22745	22745	22745	22745	22737	999999	22749	22749
22765	22765	22765	22765	22765	999999	22751	22751	22751	22751	22751	999999	999999	999999	999999	999999	0	999999	22749	22749	22749	22749	22749	999999	22759	22759	22759	22759	22759	999999	22745	22745	22745	22745	22745	22737	22749	22749
22765	22765	22765	22765	22765	22765	22751	22751	22751	22751	22751	22751	999999	999999	999999	999999	999999	0	22749	22749	22749	22749	22749	22749	22759	22759	22759	22759	22759	22759	22745	22745	22745	22745	22745	22745	22749	22749
22765	22765	22765	22757	999999	999999	22751	22751	22743	999999	999999	999999	0	999999	999999	999999	999999	999999	22749	22749	22741	999999	999999	999999	22759	22759	22751	999999	999999	999999	22745	22737	999999	999999	999999	999999	22749	22749
22777	22777	22777	22777	22777	22769	22761	22761	22761	22761	22753	999999	22749	22749	22749	22741	999999	999999	999999	0	999999	999999	999999	999999	22758	22758	22758	22750	999999	999999	22760	22760	22760	22752	999999	999999	22750	22750
22777	22777	22777	999999	999999	999999	22761	22761	22761	22761	22761	22753	22749	22749	22749	22749	22741	999999	999999	999999	0	999999	999999	999999	22758	22758	22758	22758	22750	999999	22760	22760	22760	22760	22752	999999	22750	22750
22777	22777	22777	22777	999999	999999	22761	22761	22761	22761	999999	999999	22749	22749	22749	22749	22749	22741	999999	999999	999999	0	999999	999999	22758	22758	22758	22758	22758	22750	22760	22760	22760	22760	22760	22752	22750	22750
22777	22777	22777	22777	22777	999999	22761	22761	22761	22761	22761	999999	22749	22749	22749	22749	22749	999999	999999	999999	999999	999999	0	999999	22758	22758	22758	22758	22758	999999	22760	22760	22760	22760	22760	999999	22750	22750
22777	22777	22777	22777	22777	22777	22761	22761	22761	22761	22761	22761	22749	22749	22749	22749	22749	22749	999999	999999	999999	999999	999999	0	22758	22758	22758	22758	22758	22758	22760	22760	22760	22760	22760	22760	22750	22750
22777	22777	22777	22777	22769	999999	22761	22761	22761	22753	999999	999999	22749	22749	22741	999999	999999	999999	0	999999	999999	999999	999999	999999	22758	22758	22750	999999	999999	999999	22760	22760	22752	999999	999999	999999	22750	22750
22762	22762	22762	22762	22754	999999	22749	22749	22749	22741	999999	999999	22759	22759	22759	22751	999999	999999	22758	22758	22758	22750	999999	999999	999999	0	999999	999999	999999	999999	22758	22758	22758	22750	999999	999999	22742	22742
22762	22762	22762	22762	22762	22754	22749	22749	22749	22749	22741	999999	22759	22759	22759	22759	22751	999999	22758	22758	22758	22758	22750	999999	999999	999999	0	999999	999999	999999	22758	22758	22758	22758	22750	999999	22742	22742
22762	22762	22762	22762	999999	999999	22749	22749	22749	22749	22749	22741	22759	22759	22759	22759	22759	22751	22758	22758	22758	22758	22758	22750	999999	999999	999999	0	999999	999999	22758	22758	22758	22758	22758	22750	22742	22742
22762	22762	22762	22762	22762	999999	22749	22749	22749	22749	22749	999999	22759	22759	22759	22759	22759	999999	22758	22758	22758	22758	22758	999999	999999	999999	999999	999999	0	999999	22758	22758	22758	22758	22758	999999	22742	22742
22762	22762	22762	22762	22762	22762	22749	22749	22749	22749	22749	22749	22759	22759	22759	22759	22759	22759	22758	22758	22758	22758	22758	22758	999999	999999	999999	999999	999999	0	22758	22758	22758	22758	22758	22758	22742	22742
22762	22762	22762	22754	999999	999999	22749	22749	22741	999999	999999	999999	22759	22759	22751	999999	999999	999999	22758	22758	22750	999999	999999	999999	0	999999	999999	999999	999999	999999	22758	22758	22750	999999	999999	999999	22742	22734
22752	22752	22752	22744	999999	999999	22744	22744	22736	999999	999999	999999	22745	22745	22737	999999	999999	999999	22760	22760	22760	22752	999999	999999	22758	22758	22758	22750	999999	999999	999999	0	999999	999999	999999	999999	22752	22752
22752	22752	22752	22752	22744	999999	22744	22744	22744	22736	999999	999999	22745	22745	22745	22737	999999	999999	22760	22760	22760	22760	22752	999999	22758	22758	22758	22758	22750	999999	999999	999999	0	999999	999999	999999	22752	22752
22752	22752	22752	22752	22752	22744	22744	22744	22744	22744	22736	999999	22745	22745	22745	22745	22737	999999	22760	22760	22760	22760	22760	22752	22758	22758	22758	22758	22758	22750	999999	999999	999999	0	999999	999999	22752	22752
22752	22752	22752	22752	22752	999999	22744	22744	22744	22744	22744	22736	22745	22745	22745	22745	22745	22737	22760	22760	22760	22760	22760	999999	22758	22758	22758	22758	22758	999999	999999	999999	999999	999999	0	999999	22752	22752
22752	22752	22752	22752	22752	22752	22744	22744	22744	22744	22744	22744	22745	22745	22745	22745	22745	22745	22760	22760	22760	22760	22760	22760	22758	22758	22758	22758	22758	22758	999999	999999	999999	999999	999999	0	22752	22752
22752	22752	22744	999999	999999	999999	22744	22736	999999	999999	999999	999999	22745	22737	999999	999999	999999	999999	22760	22760	22752	999999	999999	999999	22758	22758	22750	999999	999999	999999	0	999999	999999	999999	999999	999999	22752	22752
22762	22762	22762	22762	22754	999999	22746	22746	22738	999999	999999	999999	22749	22749	22749	22741	999999	999999	22750	22750	22750	22742	999999	999999	22742	22742	22734	999999	999999	999999	22752	22752	22752	22744	999999	999999	999999	0
22762	22762	22762	22762	22762	22754	22746	22746	22746	22738	999999	999999	22749	22749	22749	22749	22741	999999	22750	22750	22750	22750	22742	999999	22742	22742	22742	22734	999999	999999	22752	22752	22752	22752	22744	999999	999999	999999
GTSP_SET_SECTION:
1 1 2 3 4 5 6 -1
2 7 8 9 10 11 12 -1
3 13 14 15 16 17 18 -1
4 19 20 21 22 23 24 -1
5 25 26 27 28 29 30 -1
6 31 32 33 34 35 36 -1
7 37 38 39 40 41 42 -1
8 43 44 45 46 47 48 -1
9 49 50 51 52 53 54 -1
10 55 56 57 58 59 60 -1
11 61 62 63 64 65 66 -1
12 67 68 69 70 71 72 -1
13 73 -1
EOF